NAME          ClpDefau
ROWS
 N  OBJROW
 L  R_192_0
 L  R_192_1
 L  R_192_2
 L  R_192_3
 L  R_192_4
 L  R_192_5
 L  R_192_6
 L  R_192_7
COLUMNS
    x_0       OBJROW     -1.           R_192_4   1.          
    x_1       OBJROW     -2.           R_192_2   3.          
    x_1       R_192_4   6.             R_192_5   9.          
    x_2       OBJROW     -2.           R_192_1   8.          
    x_3       OBJROW     -6.           R_192_2   7.          
    x_4       OBJROW     -3.        
    x_5       OBJROW     -5.           R_192_5   10.         
    x_6       OBJROW     -5.        
    x_7       OBJROW     -10.          R_192_4   6.          
    x_7       R_192_7   2.          
    x_8       OBJROW     -4.           R_192_0   1.          
    x_8       R_192_4   9.             R_192_5   5.          
    x_9       OBJROW     -10.          R_192_3   6.          
    x_9       R_192_6   2.          
    x_10      OBJROW     -1.           R_192_0   1.          
    x_10      R_192_2   3.             R_192_5   10.         
    x_10      R_192_6   4.             R_192_7   1.          
    x_11      OBJROW     -10.          R_192_0   10.         
    x_12      OBJROW     -3.           R_192_0   5.          
    x_13      OBJROW     -7.           R_192_0   8.          
    x_14      OBJROW     -7.        
    x_15      OBJROW     -9.           R_192_0   3.          
    x_15      R_192_1   4.          
RHS
    RHS       R_192_0   12.            R_192_1   6.          
    RHS       R_192_2   11.            R_192_3   15.         
    RHS       R_192_4   12.            R_192_5   17.         
    RHS       R_192_6   12.            R_192_7   20.         
BOUNDS
 UI BOUND     x_0       10.         
 UI BOUND     x_1       10.         
 UI BOUND     x_2       10.         
 UI BOUND     x_3       10.         
 UI BOUND     x_4       10.         
 UI BOUND     x_5       10.         
 UI BOUND     x_6       10.         
 UI BOUND     x_7       10.         
 UI BOUND     x_8       10.         
 UI BOUND     x_9       10.         
 UI BOUND     x_10      10.         
 UI BOUND     x_11      10.         
 UI BOUND     x_12      10.         
 UI BOUND     x_13      10.         
 UI BOUND     x_14      10.         
 UI BOUND     x_15      10.         
ENDATA
